
  12    4
  10   10   10   10

   0   0   0   0   0   3 2 3 4 
   9  10  10  10  10   4 11 7 6 5 
   7  10  10  10  10   3 11 9 5 
   7  10  10  10  10   2 6 5 
   5  10  10  10  10   2 10 8 
  10  10  10  10  10   2 9 8 
   5  10  10  10  10   1 8 
   7  10  10  10  10   1 12
   6  10  10  10  10   1 12
   7  10  10  10  10   1 12
   8  10  10  10  10   1 12
   0   0   0   0   0   0 
